147
0 105 67 121 28 21 70 12 96 31 
60 86 138 2 107 118 64 59 89 94 
146 134 114 122 48 109 66 25 5 36 
57 4 116 145 142 141 32 56 76 104 
79 29 42 77 111 120 17 93 41 65 
129 52 84 24 62 112 130 73 13 106 
63 110 51 43 69 37 54 87 61 128 
135 53 124 20 125 50 131 132 91 88 
127 35 119 3 100 75 18 10 38 137 
14 45 15 101 82 98 126 83 139 9 
80 72 133 140 39 44 71 11 78 123 
95 16 26 47 19 23 30 97 7 34 
1 92 49 33 115 143 8 58 90 117 
27 6 144 99 55 103 68 136 85 40 
102 74 81 46 22 108 113 
